32	4
15	11	11	16
0	0	0	0	0	8	2	8	10	17	18	20	30	31
10	0	2	1	0	1	3
5	5	0	9	0	1	4
10	0	0	2	8	3	5	28	29
1	15	0	0	1	1	6
1	8	5	0	0	3	7	23	27
1	13	6	0	0	5	9	22	24	25	26
1	0	7	2	0	2	11	23
2	1	10	0	0	1	11
3	15	0	9	0	2	13	28
10	0	0	4	5	1	12
1	11	0	0	3	1	13
3	1	0	0	1	1	14
7	0	3	9	0	1	15
4	9	11	0	0	1	16
7	3	3	0	0	1	19
1	0	0	1	13	1	19
3	7	0	0	14	1	19
8	0	0	11	16	1	21
3	9	4	0	0	1	22
6	0	7	2	0	1	32
9	0	6	7	0	1	32
6	0	2	0	16	1	32
7	6	0	8	0	1	32
2	0	0	5	15	1	32
3	0	0	11	5	1	32
8	1	0	0	2	1	32
5	0	3	0	5	1	32
4	9	0	0	8	1	32
9	0	11	2	0	1	32
3	0	3	0	8	1	32
0	0	0	0	0	0
